c NeuroCodeBench 2.0 CNF formula with verdict Unsat
p cnf 34 136
-1 -34 28 16 -15 -18 17 31 0
1 -21 -22 11 -10 31 -25 -15 0
1 21 8 -6 24 23 5 22 3 0
1 21 -8 -31 10 -4 5 0
1 -21 22 25 11 -13 8 2 28 0
1 21 -8 31 15 24 5 2 -26 0
-1 -34 28 16 -15 -18 17 -31 0
1 21 8 6 9 -7 -3 0
-1 -34 -28 10 -19 7 0
1 21 8 6 -9 10 -13 0
1 21 -8 31 -15 10 6 19 24 0
-1 -34 -28 10 -19 -7 -25 27 0
1 21 -8 -31 -10 2 0
-1 34 -6 30 32 18 0
-1 34 6 19 -22 -8 0
-1 34 6 19 -22 8 10 23 -27 -3 7 0
-1 34 6 19 -22 8 10 23 -27 3 -32 0
-1 34 -6 -30 -21 0
-1 34 6 19 -22 8 10 23 -27 3 32 0
1 -21 -22 11 -10 -31 0
-1 -34 28 -16 30 -27 -32 0
-1 -34 28 -16 30 -27 32 0
-1 -34 -28 10 19 2 0
1 -21 -22 -11 -10 27 -24 0
1 -21 22 -25 -28 -15 0
1 21 -8 -31 10 -4 -5 32 17 0
1 21 -8 31 -15 10 6 19 -24 5 0
-1 -34 -28 10 19 -2 22 0
-1 34 -6 30 -32 0
-1 34 6 -19 7 12 20 13 0
-1 -34 -28 -10 -15 -27 0
1 -21 -22 -11 -10 27 24 0
1 21 -8 -31 10 -4 -5 32 -17 0
-1 34 6 19 -22 8 -10 0
1 -21 22 -25 28 0
1 21 8 -6 -24 -3 4 2 -22 -34 0
1 21 -8 31 15 24 5 2 26 0
-1 34 6 19 -22 8 10 -23 4 0
1 21 8 6 -9 -10 -30 0
-1 34 6 -19 7 -12 10 -24 26 -27 -33 2 0
-1 34 6 19 -22 8 10 23 -27 -3 -7 0
1 21 8 -6 24 23 -5 18 -13 0
1 21 8 -6 -24 -3 4 2 22 0
1 21 -8 31 15 24 -5 -2 -25 0
-1 -34 -28 10 -19 -7 25 0
-1 -34 -28 10 19 -2 -22 0
1 21 -8 -31 -10 -2 -16 -32 28 0
-1 34 6 -19 7 -12 10 24 -30 0
1 -21 -22 11 -10 31 25 0
-1 34 6 -19 -7 -28 -26 0
-1 -34 -28 -10 15 0
1 21 -8 31 -15 10 6 -19 0
1 -21 22 25 11 -13 8 2 -28 0
1 -21 -22 -11 10 28 0
-1 -34 28 -16 30 27 -18 0
1 21 -8 31 -15 -10 0
1 21 -8 -31 10 4 9 23 3 0
-1 34 6 -19 7 -12 10 -24 26 -27 33 0
1 -21 22 25 -11 17 0
-1 34 6 -19 -7 28 -33 -5 -15 0
1 -21 -22 -11 -10 -27 -4 17 0
1 21 8 -6 -24 3 -11 -10 23 0
1 21 8 -6 -24 3 -11 -10 -23 0
1 -21 22 25 11 -13 8 -2 0
1 21 8 -6 -24 -3 4 2 -22 34 0
-1 34 6 -19 -7 28 33 13 0
1 -21 22 25 -11 -17 0
1 -21 22 25 11 13 0
1 -21 -22 -11 -10 -27 -4 -17 0
1 21 -8 -31 -10 -2 -16 32 0
-1 34 6 -19 -7 28 -33 -5 15 0
-1 34 -6 -30 21 14 0
-1 -34 28 -16 -30 -15 17 0
1 21 -8 31 15 24 -5 -2 25 0
1 21 8 -6 24 23 5 -22 0
-1 -34 28 16 -15 18 4 0
1 21 8 -6 24 23 5 22 -3 0
1 -21 -22 -11 -10 -27 4 0
1 21 -8 -31 10 -4 -5 -32 0
1 21 8 -6 24 -23 0
-1 -34 28 -16 -30 -15 -17 0
1 21 8 6 9 7 0
1 21 -8 31 -15 10 6 19 -24 -5 0
1 21 -8 31 15 24 -5 2 0
-1 -34 -28 -10 -15 27 0
-1 34 6 -19 7 -12 10 -24 26 27 0
1 21 8 -6 -24 3 11 0
1 21 8 6 -9 10 13 -32 0
1 21 8 6 -9 10 13 32 0
-1 34 6 -19 -7 -28 26 0
1 21 8 6 9 -7 3 0
1 21 8 -6 -24 3 -11 10 0
1 -21 22 25 11 -13 -8 0
1 21 8 -6 -24 -3 4 -2 0
1 -21 22 -25 -28 15 -19 -26 0
-1 34 6 -19 7 12 20 -13 0
-1 34 6 -19 7 -12 -10 31 0
1 21 -8 31 15 -24 0
-1 34 6 -19 -7 28 -33 5 14 0
1 21 -8 31 -15 10 -6 -3 0
-1 34 6 19 -22 8 10 -23 -4 0
-1 34 6 19 -22 8 10 23 27 0
-1 34 6 -19 7 -12 10 -24 -26 0
-1 -34 28 -16 30 27 18 0
1 -21 22 -25 -28 15 19 0
-1 34 6 -19 7 -12 -10 -31 0
1 -21 -22 -11 10 -28 0
-1 -34 28 16 15 -17 0
1 -21 -22 11 10 0
-1 34 -6 -30 21 -14 0
1 21 8 -6 -24 -3 -4 -2 0
1 21 -8 -31 10 4 -9 0
1 21 8 -6 24 23 -5 -18 0
1 -21 -22 11 -10 31 -25 15 0
-1 -34 -28 10 -19 -7 -25 -27 0
-1 -34 28 16 -15 -18 -17 0
-1 -34 28 -16 -30 15 0
-1 34 6 -19 7 12 -20 0
-1 34 -6 30 32 -18 0
1 21 -8 -31 -10 -2 16 0
1 -21 22 -25 -28 15 -19 26 0
-1 34 6 -19 -7 28 33 -13 0
1 21 -8 -31 10 4 9 -23 0
-1 34 6 19 22 0
1 21 8 6 -9 -10 30 0
-1 34 6 -19 7 -12 10 -24 26 -27 -33 -2 0
1 21 -8 -31 10 4 9 23 -3 0
-1 -34 28 16 -15 18 -4 0
-1 34 6 -19 7 -12 10 24 30 0
1 21 -8 31 -15 10 -6 3 0
1 21 8 -6 24 23 -5 18 13 0
1 21 -8 -31 -10 -2 -16 -32 -28 0
1 21 8 -6 -24 -3 -4 2 0
-1 -34 28 16 15 17 0
1 21 -8 31 15 24 5 -2 0
-1 34 6 -19 -7 28 -33 5 -14 0
